Maximize
  1 akg_c + 1 L2aadp_m 
Subject To
  1 L2aadp_m + 1 akg_c - 1 akg_m - 1 L2aadp_c = 2000
Bounds
  L2aadp_m <= 1000
  akg_c <= 300
  akg_m <= 430
  L2aadp_c <= 460
Integers
  L2aadp_m akg_c akg_m L2aadp_c
End
